sat
(= |goto_symex::&92;guard#1| true)
(= |goto_symex::&92;guard#2| false)
(= |nondet_symex::nondet0| false)
(= |nondet_symex::nondet1| false)
(= |nondet_symex::nondet3| false)
(= |nondet_symex::nondet4| true)
(= |memory_model::choice_rf_1_23_0_10_T_0| false)
(= |memory_model::choice_rf_1_23_2_61_T_1| false)
(= |memory_model::choice_rf_1_23_3_16_T_2| true)
(= |memory_model::choice_rf_2_60_0_10_T_3| true)
(= |memory_model::choice_rf_2_60_1_24_T_4| false)
(= |memory_model::choice_rf_2_60_3_16_T_5| false)
(= |memory_model::choice_rf_3_15_0_10_T_6| true)
(= |memory_model::choice_rf_3_15_1_24_T_7| false)
(= |memory_model::choice_rf_3_15_2_61_T_8| false)
(= |memory_model::choice_rf_0_43_0_8_T_9| false)
(= |memory_model::choice_rf_0_43_0_39_T_10| true)
(= |memory_model::choice_rf_0_48_0_8_T_11| false)
(= |memory_model::choice_rf_0_48_0_39_T_12| false)
(= |memory_model::choice_rf_0_48_0_44_T_13| true)
(= |memory_model::choice_rf_1_0_0_20_F_14| false)
(= |memory_model::choice_rf_1_0_3_0_F_15| true)
(= |memory_model::choice_rf_2_44_0_20_F_16| true)
(= |memory_model::choice_rf_2_44_3_0_F_17| false)
(= |memory_model::choice_rf_0_52_0_11_F_18| false)
(= |memory_model::choice_rf_0_52_1_22_F_19| false)
(= |memory_model::choice_rf_0_52_2_59_F_20| true)
(= |memory_model::choice_rf_0_52_3_14_F_21| false)
(= |memory_model::choice_rf_1_21_0_11_F_22| false)
(= |memory_model::choice_rf_1_21_2_59_F_23| false)
(= |memory_model::choice_rf_1_21_3_14_F_24| true)
(= |memory_model::choice_rf_2_58_0_11_F_25| false)
(= |memory_model::choice_rf_2_58_1_22_F_26| true)
(= |memory_model::choice_rf_2_58_3_14_F_27| false)
(= |memory_model::choice_rf_3_13_0_11_F_28| true)
(= |memory_model::choice_rf_3_13_1_22_F_29| false)
(= |memory_model::choice_rf_3_13_2_59_F_30| false)
(= |memory_model::choice_rf_0_71_0_12_F_31| false)
(= |memory_model::choice_rf_0_71_1_1_F_32| true)
(= |memory_model::choice_rf_0_70_0_13_F_33| false)
(= |memory_model::choice_rf_0_70_1_10_F_34| true)
(= |memory_model::choice_rf_0_69_0_14_F_35| false)
(= |memory_model::choice_rf_0_69_2_31_F_36| true)
(= |memory_model::choice_rf_2_19_0_14_F_37| false)
(= |memory_model::choice_rf_0_68_0_15_F_38| false)
(= |memory_model::choice_rf_0_68_2_45_F_39| true)
(= |memory_model::choice_rf_2_43_0_15_F_40| false)
(= |memory_model::choice_rf_0_54_0_16_F_41| false)
(= |memory_model::choice_rf_0_54_0_53_F_42| true)
(= |memory_model::choice_rf_0_67_0_17_F_43| false)
(= |memory_model::choice_rf_0_73_0_17_F_44| false)
(= |memory_model::choice_rf_0_73_0_72_F_45| true)
(= |memory_model::choice_rf_0_74_0_17_F_46| false)
(= |memory_model::choice_rf_0_74_0_72_F_47| true)
(= |memory_model::choice_rf_0_55_0_21_F_48| false)
(= |memory_model::choice_rf_0_55_1_13_F_49| false)
(= |memory_model::choice_rf_0_55_2_35_F_50| false)
(= |memory_model::choice_rf_0_55_2_57_F_51| true)
(= |memory_model::choice_rf_0_55_3_12_F_52| false)
(= |memory_model::choice_rf_1_8_0_21_F_53| false)
(= |memory_model::choice_rf_1_8_0_66_F_54| false)
(= |memory_model::choice_rf_1_8_2_35_F_55| false)
(= |memory_model::choice_rf_1_8_2_57_F_56| false)
(= |memory_model::choice_rf_1_8_3_12_F_57| true)
(= |memory_model::choice_rf_2_24_0_21_F_58| true)
(= |memory_model::choice_rf_2_24_0_66_F_59| false)
(= |memory_model::choice_rf_2_24_1_13_F_60| false)
(= |memory_model::choice_rf_2_24_3_12_F_61| false)
(= |memory_model::choice_rf_2_46_0_21_F_62| false)
(= |memory_model::choice_rf_2_46_0_66_F_63| false)
(= |memory_model::choice_rf_2_46_1_13_F_64| true)
(= |memory_model::choice_rf_2_46_2_35_F_65| false)
(= |memory_model::choice_rf_2_46_3_12_F_66| false)
(= |memory_model::choice_rf_3_1_0_21_F_67| false)
(= |memory_model::choice_rf_3_1_0_66_F_68| false)
(= |memory_model::choice_rf_3_1_1_13_F_69| false)
(= |memory_model::choice_rf_3_1_2_35_F_70| true)
(= |memory_model::choice_rf_3_1_2_57_F_71| false)
(= |memory_model::choice_rf_2_26_0_22_F_72| false)
(= |memory_model::choice_rf_2_26_1_16_F_73| false)
(= |memory_model::choice_rf_2_23_0_23_F_74| false)
(= |memory_model::choice_rf_2_23_1_14_F_75| false)
(= |memory_model::choice_rf_0_60_0_24_F_76| true)
(= |memory_model::choice_rf_2_7_0_24_F_77| true)
(= |memory_model::choice_rf_2_7_0_63_F_78| false)
(= |memory_model::choice_rf_1_6_0_25_F_79| true)
(= |memory_model::choice_rf_2_3_0_25_F_80| true)
(= |memory_model::choice_rf_2_3_1_15_F_81| false)
(= |memory_model::choice_rf_2_2_0_26_F_82| true)
(= |memory_model::choice_rf_2_25_0_26_F_83| false)
(= |memory_model::choice_rf_2_25_2_10_F_84| true)
(= |memory_model::choice_rf_2_51_0_26_F_85| false)
(= |memory_model::choice_rf_2_51_2_10_F_86| false)
(= |memory_model::choice_rf_2_51_2_37_F_87| true)
(= |memory_model::choice_rf_2_5_0_27_F_88| true)
(= |memory_model::choice_rf_2_5_3_9_F_89| false)
(= |memory_model::choice_rf_3_6_0_27_F_90| true)
(= |memory_model::choice_rf_0_57_0_28_F_91| false)
(= |memory_model::choice_rf_0_57_2_14_F_92| true)
(= |memory_model::choice_rf_2_6_0_28_F_93| false)
(= |memory_model::choice_rf_2_6_0_62_F_94| false)
(= |memory_model::choice_rf_1_4_0_29_F_95| false)
(= |memory_model::choice_rf_1_4_2_12_F_96| true)
(= |memory_model::choice_rf_2_1_0_29_F_97| false)
(= |memory_model::choice_rf_2_1_1_9_F_98| false)
(= |memory_model::choice_rf_2_0_0_30_F_99| false)
(= |memory_model::choice_rf_2_22_0_30_F_100| false)
(= |memory_model::choice_rf_2_22_2_11_F_101| true)
(= |memory_model::choice_rf_2_48_0_30_F_102| false)
(= |memory_model::choice_rf_2_48_2_11_F_103| false)
(= |memory_model::choice_rf_2_48_2_32_F_104| true)
(= |memory_model::choice_rf_2_4_0_31_F_105| false)
(= |memory_model::choice_rf_2_4_3_8_F_106| false)
(= |memory_model::choice_rf_3_5_0_31_F_107| false)
(= |memory_model::choice_rf_3_5_2_13_F_108| true)
(= |memory_model::choice_rf_0_59_0_34_F_109| false)
(= |memory_model::choice_rf_0_59_1_12_F_110| true)
(= |memory_model::choice_rf_0_59_2_17_F_111| false)
(= |memory_model::choice_rf_0_59_2_34_F_112| false)
(= |memory_model::choice_rf_1_3_0_34_F_113| false)
(= |memory_model::choice_rf_1_3_2_17_F_114| false)
(= |memory_model::choice_rf_1_3_2_34_F_115| true)
(= |memory_model::choice_rf_2_9_0_34_F_116| true)
(= |memory_model::choice_rf_2_9_1_12_F_117| false)
(= |memory_model::choice_rf_2_21_0_34_F_118| false)
(= |memory_model::choice_rf_2_21_1_12_F_119| false)
(= |memory_model::choice_rf_2_21_2_17_F_120| true)
(= |memory_model::choice_rf_2_50_0_34_F_121| false)
(= |memory_model::choice_rf_2_50_1_12_F_122| true)
(= |memory_model::choice_rf_2_50_2_17_F_123| false)
(= |memory_model::choice_rf_2_50_2_34_F_124| false)
(= |memory_model::choice_rf_3_4_0_34_F_125| false)
(= |memory_model::choice_rf_3_4_1_12_F_126| false)
(= |memory_model::choice_rf_3_4_2_17_F_127| false)
(= |memory_model::choice_rf_3_4_2_34_F_128| true)
(= |memory_model::choice_rf_0_61_0_35_F_129| false)
(= |memory_model::choice_rf_0_61_1_17_F_130| false)
(= |memory_model::choice_rf_0_61_2_15_F_131| false)
(= |memory_model::choice_rf_0_61_2_39_F_132| false)
(= |memory_model::choice_rf_0_61_2_56_F_133| true)
(= |memory_model::choice_rf_0_61_3_11_F_134| false)
(= |memory_model::choice_rf_1_7_0_35_F_135| false)
(= |memory_model::choice_rf_1_7_0_65_F_136| false)
(= |memory_model::choice_rf_1_7_2_15_F_137| false)
(= |memory_model::choice_rf_1_7_2_39_F_138| false)
(= |memory_model::choice_rf_1_7_2_56_F_139| false)
(= |memory_model::choice_rf_1_7_3_11_F_140| true)
(= |memory_model::choice_rf_2_8_0_35_F_141| true)
(= |memory_model::choice_rf_2_8_0_65_F_142| false)
(= |memory_model::choice_rf_2_8_1_17_F_143| false)
(= |memory_model::choice_rf_2_8_3_11_F_144| false)
(= |memory_model::choice_rf_2_27_0_35_F_145| false)
(= |memory_model::choice_rf_2_27_0_65_F_146| false)
(= |memory_model::choice_rf_2_27_1_17_F_147| false)
(= |memory_model::choice_rf_2_27_2_15_F_148| true)
(= |memory_model::choice_rf_2_27_3_11_F_149| false)
(= |memory_model::choice_rf_2_52_0_35_F_150| false)
(= |memory_model::choice_rf_2_52_0_65_F_151| false)
(= |memory_model::choice_rf_2_52_1_17_F_152| true)
(= |memory_model::choice_rf_2_52_2_15_F_153| false)
(= |memory_model::choice_rf_2_52_2_39_F_154| false)
(= |memory_model::choice_rf_2_52_3_11_F_155| false)
(= |memory_model::choice_rf_3_7_0_35_F_156| false)
(= |memory_model::choice_rf_3_7_0_65_F_157| false)
(= |memory_model::choice_rf_3_7_1_17_F_158| false)
(= |memory_model::choice_rf_3_7_2_15_F_159| false)
(= |memory_model::choice_rf_3_7_2_39_F_160| true)
(= |memory_model::choice_rf_3_7_2_56_F_161| false)
(= |memory_model::choice_rf_0_56_0_36_F_162| false)
(= |memory_model::choice_rf_0_56_1_11_F_163| true)
(= |memory_model::choice_rf_0_56_2_18_F_164| false)
(= |memory_model::choice_rf_0_56_2_33_F_165| false)
(= |memory_model::choice_rf_1_2_0_36_F_166| false)
(= |memory_model::choice_rf_1_2_2_18_F_167| false)
(= |memory_model::choice_rf_1_2_2_33_F_168| true)
(= |memory_model::choice_rf_2_20_0_36_F_169| false)
(= |memory_model::choice_rf_2_20_1_11_F_170| false)
(= |memory_model::choice_rf_2_20_2_18_F_171| true)
(= |memory_model::choice_rf_2_47_0_36_F_172| false)
(= |memory_model::choice_rf_2_47_1_11_F_173| true)
(= |memory_model::choice_rf_2_47_2_18_F_174| false)
(= |memory_model::choice_rf_2_47_2_33_F_175| false)
(= |memory_model::choice_rf_3_2_0_36_F_176| false)
(= |memory_model::choice_rf_3_2_1_11_F_177| false)
(= |memory_model::choice_rf_3_2_2_18_F_178| false)
(= |memory_model::choice_rf_3_2_2_33_F_179| true)
(= |memory_model::choice_rf_0_58_0_37_F_180| false)
(= |memory_model::choice_rf_0_58_1_19_F_181| false)
(= |memory_model::choice_rf_0_58_2_16_F_182| false)
(= |memory_model::choice_rf_0_58_2_41_F_183| false)
(= |memory_model::choice_rf_0_58_2_55_F_184| true)
(= |memory_model::choice_rf_0_58_3_10_F_185| false)
(= |memory_model::choice_rf_1_5_0_37_F_186| false)
(= |memory_model::choice_rf_1_5_0_64_F_187| false)
(= |memory_model::choice_rf_1_5_2_16_F_188| false)
(= |memory_model::choice_rf_1_5_2_41_F_189| false)
(= |memory_model::choice_rf_1_5_2_55_F_190| false)
(= |memory_model::choice_rf_1_5_3_10_F_191| true)
(= |memory_model::choice_rf_2_29_0_37_F_192| false)
(= |memory_model::choice_rf_2_29_0_64_F_193| false)
(= |memory_model::choice_rf_2_29_1_19_F_194| false)
(= |memory_model::choice_rf_2_29_2_16_F_195| true)
(= |memory_model::choice_rf_2_29_3_10_F_196| false)
(= |memory_model::choice_rf_2_49_0_37_F_197| false)
(= |memory_model::choice_rf_2_49_0_64_F_198| false)
(= |memory_model::choice_rf_2_49_1_19_F_199| true)
(= |memory_model::choice_rf_2_49_2_16_F_200| false)
(= |memory_model::choice_rf_2_49_2_41_F_201| false)
(= |memory_model::choice_rf_2_49_3_10_F_202| false)
(= |memory_model::choice_rf_3_3_0_37_F_203| false)
(= |memory_model::choice_rf_3_3_0_64_F_204| false)
(= |memory_model::choice_rf_3_3_1_19_F_205| false)
(= |memory_model::choice_rf_3_3_2_16_F_206| false)
(= |memory_model::choice_rf_3_3_2_41_F_207| true)
(= |memory_model::choice_rf_3_3_2_55_F_208| false)
(= |memory_model::choice_rf_2_30_0_18_F_209| false)
(= |memory_model::choice_rf_2_30_1_20_F_210| false)
(= |memory_model::choice_rf_2_28_0_19_F_211| false)
(= |memory_model::choice_rf_2_28_1_18_F_212| false)
(= |memory_model::choice_ws-ext_0_10_1_24_T_213| true)
(= |memory_model::choice_ws-ext_0_10_2_61_T_214| true)
(= |memory_model::choice_ws-ext_0_10_3_16_T_215| true)
(= |memory_model::choice_ws-ext_1_24_2_61_T_216| false)
(= |memory_model::choice_ws-ext_1_24_3_16_T_217| false)
(= |memory_model::choice_ws-ext_2_61_3_16_T_218| false)
(= |memory_model::choice_ws-ext_0_20_3_0_F_219| true)
(= |memory_model::choice_ws-ext_0_11_1_22_F_220| true)
(= |memory_model::choice_ws-ext_0_11_2_59_F_221| true)
(= |memory_model::choice_ws-ext_0_11_3_14_F_222| true)
(= |memory_model::choice_ws-ext_1_22_2_59_F_223| true)
(= |memory_model::choice_ws-ext_1_22_3_14_F_224| false)
(= |memory_model::choice_ws-ext_2_59_3_14_F_225| false)
(= |memory_model::choice_ws-ext_0_12_1_1_F_226| true)
(= |memory_model::choice_ws-ext_0_13_1_10_F_227| true)
(= |memory_model::choice_ws-ext_0_14_2_31_F_228| true)
(= |memory_model::choice_ws-ext_0_15_2_45_F_229| true)
(= |memory_model::choice_ws-ext_0_21_1_13_F_230| true)
(= |memory_model::choice_ws-ext_0_21_2_35_F_231| true)
(= |memory_model::choice_ws-ext_0_21_2_57_F_232| true)
(= |memory_model::choice_ws-ext_0_21_3_12_F_233| true)
(= |memory_model::choice_ws-ext_0_66_1_13_F_234| false)
(= |memory_model::choice_ws-ext_0_66_2_35_F_235| false)
(= |memory_model::choice_ws-ext_0_66_2_57_F_236| false)
(= |memory_model::choice_ws-ext_0_66_3_12_F_237| false)
(= |memory_model::choice_ws-ext_1_13_2_35_F_238| false)
(= |memory_model::choice_ws-ext_1_13_2_57_F_239| true)
(= |memory_model::choice_ws-ext_1_13_3_12_F_240| false)
(= |memory_model::choice_ws-ext_2_35_3_12_F_241| true)
(= |memory_model::choice_ws-ext_2_57_3_12_F_242| false)
(= |memory_model::choice_ws-ext_0_22_1_16_F_243| true)
(= |memory_model::choice_ws-ext_0_22_2_38_F_244| true)
(= |memory_model::choice_ws-ext_1_16_2_38_F_245| false)
(= |memory_model::choice_ws-ext_0_23_1_14_F_246| true)
(= |memory_model::choice_ws-ext_0_23_2_36_F_247| true)
(= |memory_model::choice_ws-ext_1_14_2_36_F_248| false)
(= |memory_model::choice_ws-ext_0_25_1_15_F_249| true)
(= |memory_model::choice_ws-ext_0_26_2_10_F_250| true)
(= |memory_model::choice_ws-ext_0_26_2_37_F_251| true)
(= |memory_model::choice_ws-ext_0_26_2_54_F_252| true)
(= |memory_model::choice_ws-ext_0_27_3_9_F_253| true)
(= |memory_model::choice_ws-ext_0_28_2_14_F_254| true)
(= |memory_model::choice_ws-ext_0_62_2_14_F_255| false)
(= |memory_model::choice_ws-ext_0_29_1_9_F_256| true)
(= |memory_model::choice_ws-ext_0_29_2_12_F_257| true)
(= |memory_model::choice_ws-ext_1_9_2_12_F_258| false)
(= |memory_model::choice_ws-ext_0_30_2_11_F_259| true)
(= |memory_model::choice_ws-ext_0_30_2_32_F_260| true)
(= |memory_model::choice_ws-ext_0_30_2_53_F_261| true)
(= |memory_model::choice_ws-ext_0_31_2_13_F_262| true)
(= |memory_model::choice_ws-ext_0_31_3_8_F_263| true)
(= |memory_model::choice_ws-ext_2_13_3_8_F_264| true)
(= |memory_model::choice_ws-ext_0_34_1_12_F_265| true)
(= |memory_model::choice_ws-ext_0_34_2_17_F_266| true)
(= |memory_model::choice_ws-ext_0_34_2_34_F_267| true)
(= |memory_model::choice_ws-ext_1_12_2_17_F_268| false)
(= |memory_model::choice_ws-ext_1_12_2_34_F_269| false)
(= |memory_model::choice_ws-ext_0_35_1_17_F_270| true)
(= |memory_model::choice_ws-ext_0_35_2_15_F_271| true)
(= |memory_model::choice_ws-ext_0_35_2_39_F_272| true)
(= |memory_model::choice_ws-ext_0_35_2_56_F_273| true)
(= |memory_model::choice_ws-ext_0_35_3_11_F_274| true)
(= |memory_model::choice_ws-ext_0_65_1_17_F_275| false)
(= |memory_model::choice_ws-ext_0_65_2_15_F_276| false)
(= |memory_model::choice_ws-ext_0_65_2_39_F_277| false)
(= |memory_model::choice_ws-ext_0_65_2_56_F_278| false)
(= |memory_model::choice_ws-ext_0_65_3_11_F_279| false)
(= |memory_model::choice_ws-ext_1_17_2_15_F_280| false)
(= |memory_model::choice_ws-ext_1_17_2_39_F_281| false)
(= |memory_model::choice_ws-ext_1_17_2_56_F_282| true)
(= |memory_model::choice_ws-ext_1_17_3_11_F_283| false)
(= |memory_model::choice_ws-ext_2_15_3_11_F_284| true)
(= |memory_model::choice_ws-ext_2_39_3_11_F_285| true)
(= |memory_model::choice_ws-ext_2_56_3_11_F_286| false)
(= |memory_model::choice_ws-ext_0_36_1_11_F_287| true)
(= |memory_model::choice_ws-ext_0_36_2_18_F_288| true)
(= |memory_model::choice_ws-ext_0_36_2_33_F_289| true)
(= |memory_model::choice_ws-ext_1_11_2_18_F_290| false)
(= |memory_model::choice_ws-ext_1_11_2_33_F_291| false)
(= |memory_model::choice_ws-ext_0_37_1_19_F_292| true)
(= |memory_model::choice_ws-ext_0_37_2_16_F_293| true)
(= |memory_model::choice_ws-ext_0_37_2_41_F_294| true)
(= |memory_model::choice_ws-ext_0_37_2_55_F_295| true)
(= |memory_model::choice_ws-ext_0_37_3_10_F_296| true)
(= |memory_model::choice_ws-ext_0_64_1_19_F_297| false)
(= |memory_model::choice_ws-ext_0_64_2_16_F_298| false)
(= |memory_model::choice_ws-ext_0_64_2_41_F_299| false)
(= |memory_model::choice_ws-ext_0_64_2_55_F_300| false)
(= |memory_model::choice_ws-ext_0_64_3_10_F_301| false)
(= |memory_model::choice_ws-ext_1_19_2_16_F_302| false)
(= |memory_model::choice_ws-ext_1_19_2_41_F_303| false)
(= |memory_model::choice_ws-ext_1_19_2_55_F_304| true)
(= |memory_model::choice_ws-ext_1_19_3_10_F_305| false)
(= |memory_model::choice_ws-ext_2_16_3_10_F_306| true)
(= |memory_model::choice_ws-ext_2_41_3_10_F_307| true)
(= |memory_model::choice_ws-ext_2_55_3_10_F_308| false)
(= |memory_model::choice_ws-ext_0_18_1_20_F_309| true)
(= |memory_model::choice_ws-ext_0_18_2_42_F_310| true)
(= |memory_model::choice_ws-ext_1_20_2_42_F_311| false)
(= |memory_model::choice_ws-ext_0_19_1_18_F_312| true)
(= |memory_model::choice_ws-ext_0_19_2_40_F_313| true)
(= |memory_model::choice_ws-ext_1_18_2_40_F_314| false)
(= |main$tmp_guard0#3| #b00000001)
(= |__CPROVER_next_thread_id#3| #b00000000000000000000000000000001)
(= |__CPROVER_next_thread_id#6| #b00000000000000000000000000000010)
(= |__unbuffered_cnt#2| #b00000000000000000000000000000011)
(= |y$w_buff0_used#2| #b00000000)
(= |y$r_buff0_thd0#2| #b00000000)
(= |y$w_buff0#2| #b00000000000000000000000000000001)
(= |y$w_buff1_used#2| #b00000000)
(= |y$r_buff1_thd0#2| #b00000000)
(= |y$w_buff1#2| #b00000000000000000000000000000000)
(= |y#2| #b00000000000000000000000000000001)
(= |y#4| #b00000000000000000000000000000001)
(= |y$w_buff0_used#6| #b00000000)
(= |y$w_buff1_used#6| #b00000000)
(= |y$r_buff0_thd0#8| #b00000000)
(= |y$r_buff1_thd0#7| #b00000000)
(= |__unbuffered_p0_EAX#2| #b00000000000000000000000000000001)
(= |__unbuffered_p0_EBX#2| #b00000000000000000000000000000000)
(= |__unbuffered_p1_EAX#2| #b00000000000000000000000000000001)
(= |__unbuffered_p1_EBX#2| #b00000000000000000000000000000000)
(= |main$tmp_guard1#2| #b00000000)
(= |main$tmp_guard1#3| #b10000000)
(= |main$tmp_guard1#6| #b00000000)
(= |pthread_create::1::this_thread_id!1@0#0| #b00000000000000000000000000000000)
(= |x#2| #b00000000000000000000000000000001)
(= |y#6| #b00000000000000000000000000000000)
(= |y$w_buff0_used#11| #b00000001)
(= |y$r_buff0_thd1#2| #b00000000)
(= |y$w_buff1_used#9| #b00000000)
(= |y$r_buff1_thd1#2| #b00000000)
(= |y$w_buff0#4| #b00000000000000000000000000000001)
(= |y$w_buff1#4| #b00000000000000000000000000000000)
(= |__unbuffered_cnt#4| #b00000000000000000000000000000001)
(= |pthread_create::1::this_thread_id!2@0#0| #b00000000000000000000000000000000)
(= |y$w_buff0#7| #b00000000000000000000000000000000)
(= |y$w_buff0_used#14| #b00000000)
(= |y$r_buff0_thd0#11| #b00000000)
(= |y$r_buff1_thd0#9| #b00000000)
(= |y$r_buff1_thd0#10| #b10000000)
(= |y$r_buff0_thd1#5| #b00000000)
(= |y$r_buff1_thd1#5| #b00000000)
(= |y$r_buff1_thd1#6| #b10000000)
(= |y$r_buff0_thd2#2| #b00000000)
(= |y$r_buff1_thd2#2| #b00000000)
(= |y$r_buff1_thd2#3| #b10000000)
(= |y$r_buff0_thd3#2| #b00000000)
(= |y$r_buff1_thd3#2| #b00000000)
(= |y$r_buff1_thd3#3| #b10000000)
(= |y$r_buff0_thd2#4| #b00000001)
(= |weak$$choice0#3| #b00000000)
(= |weak$$choice0#4| #b10000000)
(= |weak$$choice2#3| #b00000001)
(= |weak$$choice2#4| #b10000000)
(= |y$flush_delayed#4| #b00000001)
(= |y$flush_delayed#5| #b10000000)
(= |y#10| #b00000000000000000000000000000000)
(= |y$mem_tmp#3| #b00000000000000000000000000000000)
(= |y$mem_tmp#4| #b10000000000000000000000000000000)
(= |y$w_buff0_used#17| #b00000001)
(= |y$r_buff0_thd2#6| #b00000001)
(= |y$w_buff1_used#13| #b00000000)
(= |y$r_buff1_thd2#5| #b00000000)
(= |y$w_buff0#10| #b00000000000000000000000000000001)
(= |y$w_buff1#8| #b00000000000000000000000000000000)
(= |y#13| #b00000000000000000000000000000001)
(= |y$w_buff0#16| #b00000000000000000000000000000001)
(= |y$w_buff1#14| #b00000000000000000000000000000000)
(= |y$w_buff0_used#29| #b00000001)
(= |y$w_buff1_used#21| #b00000000)
(= |y$r_buff0_thd2#28| #b00000001)
(= |y$r_buff1_thd2#15| #b00000000)
(= |__unbuffered_p1_EAX#4| #b00000000000000000000000000000001)
(= |__unbuffered_p1_EAX#5| #b10000000000000000000000000000000)
(= |y#17| #b00000000000000000000000000000000)
(= |y$flush_delayed#8| #b00000000)
(= |x#4| #b00000000000000000000000000000000)
(= |__unbuffered_p1_EBX#4| #b00000000000000000000000000000000)
(= |__unbuffered_p1_EBX#5| #b10000000000000000000000000000000)
(= |y$w_buff0_used#37| #b00000001)
(= |y$r_buff0_thd2#33| #b00000001)
(= |y$w_buff0#18| #b00000000000000000000000000000001)
(= |y$w_buff1_used#25| #b00000000)
(= |y$r_buff1_thd2#17| #b00000000)
(= |y$w_buff1#16| #b00000000000000000000000000000000)
(= |y#19| #b00000000000000000000000000000000)
(= |y#21| #b00000000000000000000000000000001)
(= |y$w_buff0_used#41| #b00000000)
(= |y$w_buff1_used#29| #b00000000)
(= |y$r_buff0_thd2#39| #b00000001)
(= |y$r_buff1_thd2#22| #b00000000)
(= |__unbuffered_cnt#7| #b00000000000000000000000000000010)
(= |__unbuffered_cnt#9| #b00000000000000000000000000000011)
(= |pthread_create::1::this_thread_id!3@0#0| #b10000000000000000000000000000000)
(= |y$w_buff0_used#46| #b00000001)
(= |y$r_buff0_thd3#4| #b00000000)
(= |y$w_buff0#20| #b00000000000000000000000000000001)
(= |y$w_buff1_used#32| #b00000000)
(= |y$r_buff1_thd3#5| #b00000000)
(= |y$w_buff1#18| #b00000000000000000000000000000000)
(= |y#23| #b00000000000000000000000000000000)
(= |__unbuffered_cnt#11| #b00000000000000000000000000000000)
(= |__CPROVER_threads_exited#1$wclk$8| #b00010011)
(= |__CPROVER_threads_exited#2$rclk$8| #b11110010)
(= |__CPROVER_threads_exited#5$wclk$8| #b11111000)
(= |__CPROVER_threads_exited#7$wclk$8| #b11110001)
(= |__CPROVER_threads_exited#4$rclk$8| #b11110000)
(= |__CPROVER_threads_exited#3$wclk$8| #b11111001)
(= |__CPROVER_threads_exited#6$rclk$8| #b11110000)
(= |x#1$wclk$8| #b00110000)
(= |x#2$rclk$8| #b01110000)
(= |x#6$wclk$8| #b01101111)
(= |x#4$rclk$8| #b01101110)
(= |__unbuffered_cnt#6$wclk$8| #b01110010)
(= |__unbuffered_cnt#2$rclk$8| #b10010011)
(= |__unbuffered_cnt#10$wclk$8| #b10010000)
(= |__unbuffered_cnt#13$wclk$8| #b01110001)
(= |__unbuffered_cnt#1$wclk$8| #b00010100)
(= |__unbuffered_cnt#4$rclk$8| #b01110010)
(= |__unbuffered_cnt#7$rclk$8| #b10010000)
(= |__unbuffered_cnt#11$rclk$8| #b01110001)
(= |__unbuffered_p0_EAX#4$wclk$8| #b01110000)
(= |__unbuffered_p0_EAX#2$rclk$8| #b10010111)
(= |__unbuffered_p0_EBX#4$wclk$8| #b01110001)
(= |__unbuffered_p0_EBX#2$rclk$8| #b10010111)
(= |__unbuffered_p1_EAX#6$wclk$8| #b01101101)
(= |__unbuffered_p1_EAX#2$rclk$8| #b10010111)
(= |__unbuffered_p1_EAX#1$wclk$8| #b00010111)
(= |__unbuffered_p1_EAX#5$rclk$8| #b01101101)
(= |__unbuffered_p1_EBX#6$wclk$8| #b01101110)
(= |__unbuffered_p1_EBX#2$rclk$8| #b10010111)
(= |__unbuffered_p1_EBX#1$wclk$8| #b00011000)
(= |__unbuffered_p1_EBX#5$rclk$8| #b01101110)
(= |main$tmp_guard1#5| #b00000000)
(= |y#9$wclk$8| #b01110001)
(= |y#2$rclk$8| #b10010110)
(= |y#18$wclk$8| #b01101101)
(= |y#22$wclk$8| #b10001111)
(= |y#25$wclk$8| #b01110000)
(= |y#1$wclk$8| #b00110001)
(= |y#6$rclk$8| #b01110001)
(= |y#5$wclk$8| #b10010110)
(= |y#10$rclk$8| #b01101101)
(= |y#19$rclk$8| #b10001111)
(= |y#23$rclk$8| #b01110000)
(= |y$flush_delayed#1$wclk$8| #b00110010)
(= |y$flush_delayed#5$rclk$8| #b01101101)
(= |y$flush_delayed#3$wclk$8| #b01110001)
(= |y$mem_tmp#1$wclk$8| #b00110011)
(= |y$mem_tmp#4$rclk$8| #b01101101)
(= |y$mem_tmp#2$wclk$8| #b01110001)
(= |y$r_buff0_thd0#1$wclk$8| #b00110100)
(= |y$r_buff0_thd0#11$rclk$8| #b01101100)
(= |y$r_buff0_thd0#10$wclk$8| #b10010110)
(= |y$r_buff0_thd1#1$wclk$8| #b00110101)
(= |y$r_buff0_thd1#2$rclk$8| #b01110001)
(= |y$r_buff0_thd1#5$rclk$8| #b01101100)
(= |y$r_buff0_thd1#4$wclk$8| #b01110001)
(= |y$r_buff0_thd2#1$wclk$8| #b00110110)
(= |y$r_buff0_thd2#2$rclk$8| #b01101100)
(= |y$r_buff0_thd2#6$rclk$8| #b01101101)
(= |y$r_buff0_thd2#33$rclk$8| #b10001111)
(= |y$r_buff0_thd3#1$wclk$8| #b00111000)
(= |y$r_buff0_thd3#2$rclk$8| #b01101100)
(= |y$r_buff0_thd3#6$wclk$8| #b01110000)
(= |y$r_buff0_thd3#4$rclk$8| #b01110000)
(= |y$r_buff1_thd0#11$wclk$8| #b01101100)
(= |y$r_buff1_thd0#2$rclk$8| #b10010110)
(= |y$r_buff1_thd0#1$wclk$8| #b01011001)
(= |y$r_buff1_thd0#10$rclk$8| #b01101100)
(= |y$r_buff1_thd0#8$wclk$8| #b10010110)
(= |y$r_buff1_thd1#1$wclk$8| #b01011010)
(= |y$r_buff1_thd1#2$rclk$8| #b01110001)
(= |y$r_buff1_thd1#7$wclk$8| #b01101100)
(= |y$r_buff1_thd1#6$rclk$8| #b01101100)
(= |y$r_buff1_thd1#4$wclk$8| #b01110001)
(= |y$r_buff1_thd2#1$wclk$8| #b01011011)
(= |y$r_buff1_thd2#3$rclk$8| #b01101100)
(= |y$r_buff1_thd2#5$rclk$8| #b01101101)
(= |y$r_buff1_thd2#17$rclk$8| #b10001111)
(= |y$r_buff1_thd3#1$wclk$8| #b01011100)
(= |y$r_buff1_thd3#3$rclk$8| #b01101100)
(= |y$r_buff1_thd3#7$wclk$8| #b01110000)
(= |y$r_buff1_thd3#5$rclk$8| #b01110000)
(= |y$r_buff1_thd3#4$wclk$8| #b01101100)
(= |y$w_buff0#6$wclk$8| #b01110001)
(= |y$w_buff0#2$rclk$8| #b10010110)
(= |y$w_buff0#9$wclk$8| #b01101100)
(= |y$w_buff0#17$wclk$8| #b01101101)
(= |y$w_buff0#1$wclk$8| #b01011111)
(= |y$w_buff0#4$rclk$8| #b01110001)
(= |y$w_buff0#7$rclk$8| #b01101100)
(= |y$w_buff0#10$rclk$8| #b01101101)
(= |y$w_buff0#18$rclk$8| #b10001111)
(= |y$w_buff0#20$rclk$8| #b01110000)
(= |y$w_buff0_used#13$wclk$8| #b01110001)
(= |y$w_buff0_used#2$rclk$8| #b10010110)
(= |y$w_buff0_used#16$wclk$8| #b01101100)
(= |y$w_buff0_used#36$wclk$8| #b01101101)
(= |y$w_buff0_used#45$wclk$8| #b10001111)
(= |y$w_buff0_used#48$wclk$8| #b01110000)
(= |y$w_buff0_used#1$wclk$8| #b01100000)
(= |y$w_buff0_used#11$rclk$8| #b01110001)
(= |y$w_buff0_used#10$wclk$8| #b10010110)
(= |y$w_buff0_used#14$rclk$8| #b01101100)
(= |y$w_buff0_used#17$rclk$8| #b01101101)
(= |y$w_buff0_used#37$rclk$8| #b10001111)
(= |y$w_buff0_used#46$rclk$8| #b01110000)
(= |y$w_buff1#6$wclk$8| #b01110001)
(= |y$w_buff1#2$rclk$8| #b10010110)
(= |y$w_buff1#7$wclk$8| #b01101100)
(= |y$w_buff1#15$wclk$8| #b01101101)
(= |y$w_buff1#1$wclk$8| #b01100001)
(= |y$w_buff1#4$rclk$8| #b01110001)
(= |y$w_buff1#8$rclk$8| #b01101101)
(= |y$w_buff1#16$rclk$8| #b10001111)
(= |y$w_buff1#18$rclk$8| #b01110000)
(= |y$w_buff1_used#11$wclk$8| #b01110001)
(= |y$w_buff1_used#2$rclk$8| #b10010110)
(= |y$w_buff1_used#12$wclk$8| #b01101100)
(= |y$w_buff1_used#24$wclk$8| #b01101101)
(= |y$w_buff1_used#31$wclk$8| #b10001111)
(= |y$w_buff1_used#34$wclk$8| #b01110000)
(= |y$w_buff1_used#1$wclk$8| #b01100010)
(= |y$w_buff1_used#9$rclk$8| #b01110001)
(= |y$w_buff1_used#8$wclk$8| #b10010110)
(= |y$w_buff1_used#13$rclk$8| #b01101101)
(= |y$w_buff1_used#25$rclk$8| #b10001111)
(= |y$w_buff1_used#32$rclk$8| #b01110000)
(= |weak$$choice0#1$wclk$8| #b00011011)
(= |weak$$choice0#4$rclk$8| #b01101101)
(= |weak$$choice0#2$wclk$8| #b01110001)
(= |weak$$choice2#1$wclk$8| #b00011110)
(= |weak$$choice2#4$rclk$8| #b01101101)
(= |weak$$choice2#2$wclk$8| #b01110001)
(= |__unbuffered_p0_EAX#1$wclk$8| #b00010101)
(= |__unbuffered_p0_EBX#1$wclk$8| #b00010110)
(= |y$flush_delayed#9$wclk$8| #b01101101)
(= |y$mem_tmp#6$wclk$8| #b01101101)
(= |y$r_buff0_thd2#5$wclk$8| #b01101100)
(= |y$r_buff0_thd2#32$wclk$8| #b01101101)
(= |y$r_buff0_thd2#41$wclk$8| #b10001111)
(= |y$r_buff1_thd2#4$wclk$8| #b01101100)
(= |y$r_buff1_thd2#16$wclk$8| #b01101101)
(= |y$r_buff1_thd2#23$wclk$8| #b10001111)
(= |weak$$choice0#5$wclk$8| #b01101101)
(= |weak$$choice2#12$wclk$8| #b01101101)
(= t1$41$spwnclk$8 #b01100110)
(= t1$46$spwnclk$8 #b01101010)
(= t1$51$spwnclk$8 #b01101110)
(= |main::1::t1743!0@1$wclk$8| #b00000000)
(= |main::1::t1744!0@1$wclk$8| #b00000001)
(= |__CPROVER_dead_object#1$wclk$8| #b00000010)
(= |__CPROVER_deallocated#1$wclk$8| #b00000011)
(= |__CPROVER_malloc_is_new_array#1$wclk$8| #b00000100)
(= |__CPROVER_malloc_object#1$wclk$8| #b00000110)
(= |__CPROVER_malloc_size#1$wclk$8| #b00001000)
(= |__CPROVER_memory_leak#1$wclk$8| #b00010000)
(= |__CPROVER_next_thread_id#1$wclk$8| #b00010001)
(= |__CPROVER_pipe_count#1$wclk$8| #b00010010)
(= |main$tmp_guard0#1$wclk$8| #b00011001)
(= |main$tmp_guard1#1$wclk$8| #b00011010)
(= |y$read_delayed#1$wclk$8| #b01011101)
(= |y$read_delayed_var#1$wclk$8| #b01011110)
(= |main::1::t1742!0@1#1$wclk$8| #b01100011)
(= |__CPROVER_next_thread_id#2$wclk$8| #b01100100)
(= |main::1::t1742!0@1#2$wclk$8| #b01100101)
(= |main::1::t1743!0@1#1$wclk$8| #b01100111)
(= |__CPROVER_next_thread_id#3$rclk$8| #b01101000)
(= |__CPROVER_next_thread_id#5$wclk$8| #b01101000)
(= |main::1::t1743!0@1#2$wclk$8| #b01101001)
(= |main::1::t1744!0@1#1$wclk$8| #b01101011)
(= |__CPROVER_next_thread_id#6$rclk$8| #b01101100)
(= |__CPROVER_next_thread_id#8$wclk$8| #b01101100)
(= |main::1::t1744!0@1#2$wclk$8| #b01101101)
(= |main$tmp_guard0#2$wclk$8| #b10010011)
(= |main$tmp_guard0#3$rclk$8| #b10010100)
(= |y$r_buff0_thd0#2$rclk$8| #b10010110)
(= |main$tmp_guard1#3$rclk$8| #b10010111)
(= |main$tmp_guard1#4$wclk$8| #b10010111)
(= |main$tmp_guard1#5$rclk$8| #b11111110)
(= |main$tmp_guard1#6$rclk$8| #b11111111)
(= array_of.0 @fun_11)
(= |__CPROVER_threads_exited#2| @fun_7)
(= |__CPROVER_threads_exited#4| @fun_11)
(= |__CPROVER_threads_exited#6| @fun_11)
(function @fun_11
 (type (Array (_ BitVec 32) (_ BitVec 1)))
 (= (@fun_11 #b00000000000000000000000000000000) #b0)
 (= (@fun_11 #b10000000000000000000000000000000) #b0)
 (default #b1))
(function @fun_7
 (type (Array (_ BitVec 32) (_ BitVec 1)))
 (= (@fun_7 #b00000000000000000000000000000000) #b0)
 (default #b1))

real	0m0.036s
user	0m0.027s
sys	0m0.010s
State: AC Run_time: 0.03849220275878906